\ENCODING=ISO-8859-1
\Problem name: ilog.cplex

Maximize
 obj: 714 x(0)#0 + 540 x(1)#1 + 915 x(2)#2 + 444 x(3)#3 + 528 x(4)#4
      + 954 x(5)#5 + 791 x(6)#6 + 858 x(7)#7 + 350 x(8)#8 + 366 x(9)#9
      + 392 x(10)#10 + 1060 x(11)#11 + 1074 x(12)#12 + 1109 x(13)#13
      + 936 x(14)#14 + 448 x(15)#15 + 515 x(16)#16 + 447 x(17)#17
      + 704 x(18)#18 + 650 x(19)#19 + 414 x(20)#20 + 535 x(21)#21
      + 417 x(22)#22 + 1019 x(23)#23 + 1192 x(24)#24 + 569 x(25)#25
      + 733 x(26)#26 + 792 x(27)#27 + 784 x(28)#28 + 1140 x(29)#29
      + 820 x(30)#30 + 852 x(31)#31 + 630 x(32)#32 + 634 x(33)#33
      + 759 x(34)#34 + 184 x(35)#35 + 638 x(36)#36 + 933 x(37)#37
      + 781 x(38)#38 + 901 x(39)#39 + 983 x(40)#40 + 1160 x(41)#41
      + 483 x(42)#42 + 859 x(43)#43 + 616 x(44)#44 + 869 x(45)#45
      + 970 x(46)#46 + 628 x(47)#47 + 651 x(48)#48 + 704 x(49)#49
      + 594 x(50)#50 + 808 x(51)#51 + 670 x(52)#52 + 815 x(53)#53
      + 531 x(54)#54 + 551 x(55)#55 + 1069 x(56)#56 + 766 x(57)#57
      + 489 x(58)#58 + 940 x(59)#59 + 942 x(60)#60 + 446 x(61)#61
      + 977 x(62)#62 + 846 x(63)#63 + 767 x(64)#64 + 704 x(65)#65
      + 770 x(66)#66 + 664 x(67)#67 + 971 x(68)#68 + 707 x(69)#69
      + 953 x(70)#70 + 1048 x(71)#71 + 559 x(72)#72 + 546 x(73)#73
      + 632 x(74)#74 + 1038 x(75)#75 + 978 x(76)#76 + 1015 x(77)#77
      + 613 x(78)#78 + 1009 x(79)#79 + 463 x(80)#80 + 1119 x(81)#81
      + 676 x(82)#82 + 954 x(83)#83 + 1012 x(84)#84 + 596 x(85)#85
      + 967 x(86)#86 + 599 x(87)#87 + 629 x(88)#88 + 753 x(89)#89
      + 892 x(90)#90 + 515 x(91)#91 + 541 x(92)#92 + 958 x(93)#93
      + 1021 x(94)#94 + 779 x(95)#95 + 953 x(96)#96 + 662 x(97)#97
      + 911 x(98)#98 + 847 x(99)#99 + 888 x(100)#100 + 834 x(101)#101
      + 547 x(102)#102 + 1026 x(103)#103 + 715 x(104)#104 + 745 x(105)#105
      + 762 x(106)#106 + 638 x(107)#107 + 546 x(108)#108 + 741 x(109)#109
      + 941 x(110)#110 + 1054 x(111)#111 + 686 x(112)#112 + 1133 x(113)#113
      + 809 x(114)#114 + 756 x(115)#115 + 886 x(116)#116 + 492 x(117)#117
      + 1115 x(118)#118 + 870 x(119)#119 + 667 x(120)#120 + 809 x(121)#121
      + 681 x(122)#122 + 704 x(123)#123 + 966 x(124)#124 + 913 x(125)#125
      + 803 x(126)#126 + 788 x(127)#127 + 1138 x(128)#128 + 691 x(129)#129
      + 1000 x(130)#130 + 762 x(131)#131 + 883 x(132)#132 + 494 x(133)#133
      + 672 x(134)#134 + 852 x(135)#135 + 982 x(136)#136 + 318 x(137)#137
      + 845 x(138)#138 + 1111 x(139)#139 + 1051 x(140)#140 + 528 x(141)#141
      + 1093 x(142)#142 + 539 x(143)#143 + 377 x(144)#144 + 887 x(145)#145
      + 632 x(146)#146 + 679 x(147)#147 + 830 x(148)#148 + 885 x(149)#149
      + 637 x(150)#150 + 998 x(151)#151 + 885 x(152)#152 + 790 x(153)#153
      + 711 x(154)#154 + 1193 x(155)#155 + 563 x(156)#156 + 340 x(157)#157
      + 655 x(158)#158 + 773 x(159)#159 + 962 x(160)#160 + 505 x(161)#161
      + 1126 x(162)#162 + 361 x(163)#163 + 509 x(164)#164 + 533 x(165)#165
      + 703 x(166)#166 + 447 x(167)#167 + 665 x(168)#168 + 929 x(169)#169
      + 1189 x(170)#170 + 415 x(171)#171 + 655 x(172)#172 + 579 x(173)#173
      + 888 x(174)#174 + 765 x(175)#175 + 863 x(176)#176 + 636 x(177)#177
      + 1016 x(178)#178 + 729 x(179)#179 + 958 x(180)#180 + 664 x(181)#181
      + 754 x(182)#182 + 574 x(183)#183 + 766 x(184)#184 + 877 x(185)#185
      + 1134 x(186)#186 + 642 x(187)#187 + 627 x(188)#188 + 725 x(189)#189
      + 710 x(190)#190 + 669 x(191)#191 + 365 x(192)#192 + 605 x(193)#193
      + 685 x(194)#194 + 866 x(195)#195 + 679 x(196)#196 + 550 x(197)#197
      + 811 x(198)#198 + 868 x(199)#199 + 415 x(200)#200 + 824 x(201)#201
      + 719 x(202)#202 + 903 x(203)#203 + 776 x(204)#204 + 1077 x(205)#205
      + 686 x(206)#206 + 271 x(207)#207 + 792 x(208)#208 + 763 x(209)#209
      + 925 x(210)#210 + 716 x(211)#211 + 549 x(212)#212 + 1075 x(213)#213
      + 559 x(214)#214 + 875 x(215)#215 + 926 x(216)#216 + 907 x(217)#217
      + 705 x(218)#218 + 952 x(219)#219 + 912 x(220)#220 + 835 x(221)#221
      + 773 x(222)#222 + 1018 x(223)#223 + 959 x(224)#224 + 751 x(225)#225
      + 944 x(226)#226 + 1090 x(227)#227 + 425 x(228)#228 + 255 x(229)#229
      + 761 x(230)#230 + 806 x(231)#231 + 278 x(232)#232 + 680 x(233)#233
      + 678 x(234)#234 + 1033 x(235)#235 + 1139 x(236)#236 + 531 x(237)#237
      + 955 x(238)#238 + 807 x(239)#239 + 562 x(240)#240 + 383 x(241)#241
      + 620 x(242)#242 + 965 x(243)#243 + 966 x(244)#244 + 1102 x(245)#245
      + 469 x(246)#246 + 709 x(247)#247 + 695 x(248)#248 + 940 x(249)#249
Subject To
 c1: 359 x(0)#0 + 127 x(1)#1 + 398 x(2)#2 + 495 x(3)#3 + 201 x(4)#4
     + 863 x(5)#5 + 83 x(6)#6 + 742 x(7)#7 + 59 x(8)#8 + 41 x(9)#9
     + 140 x(10)#10 + 809 x(11)#11 + 860 x(12)#12 + 706 x(13)#13 + 6 x(14)#14
     + 3 x(15)#15 + 293 x(16)#16 + 95 x(17)#17 + 368 x(18)#18 + 268 x(19)#19
     + 34 x(20)#20 + 553 x(21)#21 + 256 x(22)#22 + 464 x(23)#23 + 344 x(24)#24
     + 262 x(25)#25 + 325 x(26)#26 + 507 x(27)#27 + 330 x(28)#28 + 521 x(29)#29
     + 888 x(30)#30 + 396 x(31)#31 + 564 x(32)#32 + 20 x(33)#33 + 810 x(34)#34
     + 52 x(35)#35 + 124 x(36)#36 + 563 x(37)#37 + 604 x(38)#38 + 317 x(39)#39
     + 604 x(40)#40 + 720 x(41)#41 + 232 x(42)#42 + 698 x(43)#43 + 312 x(44)#44
     + 957 x(45)#45 + 483 x(46)#46 + 627 x(47)#47 + 327 x(48)#48 + 190 x(49)#49
     + 191 x(50)#50 + 557 x(51)#51 + 452 x(52)#52 + 770 x(53)#53 + 562 x(54)#54
     + 531 x(55)#55 + 849 x(56)#56 + 918 x(57)#57 + 32 x(58)#58 + 703 x(59)#59
     + 792 x(60)#60 + 80 x(61)#61 + 449 x(62)#62 + 950 x(63)#63 + 794 x(64)#64
     + 763 x(65)#65 + 2 x(66)#66 + 495 x(67)#67 + 131 x(68)#68 + 15 x(69)#69
     + 12 x(70)#70 + 554 x(71)#71 + 140 x(72)#72 + 182 x(73)#73 + 687 x(74)#74
     + 104 x(75)#75 + 886 x(76)#76 + 559 x(77)#77 + 37 x(78)#78 + 478 x(79)#79
     + 518 x(80)#80 + 978 x(81)#81 + 206 x(82)#82 + 641 x(83)#83 + 150 x(84)#84
     + 392 x(85)#85 + 415 x(86)#86 + 96 x(87)#87 + 638 x(88)#88 + 104 x(89)#89
     + 385 x(90)#90 + 188 x(91)#91 + 340 x(92)#92 + 577 x(93)#93 + 683 x(94)#94
     + 153 x(95)#95 + 617 x(96)#96 + 987 x(97)#97 + 599 x(98)#98 + 41 x(99)#99
     + 671 x(100)#100 + 300 x(101)#101 + 20 x(102)#102 + 733 x(103)#103
     + 59 x(104)#104 + 907 x(105)#105 + 985 x(106)#106 + 315 x(107)#107
     + 606 x(108)#108 + 270 x(109)#109 + 293 x(110)#110 + 581 x(111)#111
     + 123 x(112)#112 + 828 x(113)#113 + 558 x(114)#114 + 687 x(115)#115
     + 536 x(116)#116 + 506 x(117)#117 + 928 x(118)#118 + 807 x(119)#119
     + 333 x(120)#120 + 886 x(121)#121 + 305 x(122)#122 + 354 x(123)#123
     + 574 x(124)#124 + 933 x(125)#125 + 230 x(126)#126 + 11 x(127)#127
     + 673 x(128)#128 + 29 x(129)#129 + 336 x(130)#130 + 114 x(131)#131
     + 878 x(132)#132 + 817 x(133)#133 + 372 x(134)#134 + 334 x(135)#135
     + 289 x(136)#136 + 776 x(137)#137 + 485 x(138)#138 + 826 x(139)#139
     + 952 x(140)#140 + 245 x(141)#141 + 906 x(142)#142 + 393 x(143)#143
     + 397 x(144)#144 + 508 x(145)#145 + 575 x(146)#146 + 609 x(147)#147
     + 243 x(148)#148 + 521 x(149)#149 + 708 x(150)#150 + 904 x(151)#151
     + 936 x(152)#152 + 960 x(153)#153 + 360 x(154)#154 + 338 x(155)#155
     + 855 x(156)#156 + 156 x(157)#157 + 996 x(158)#158 + 125 x(159)#159
     + 138 x(160)#160 + 320 x(161)#161 + 830 x(162)#162 + 115 x(163)#163
     + 346 x(164)#164 + 215 x(165)#165 + 540 x(166)#166 + 125 x(167)#167
     + 294 x(168)#168 + 836 x(169)#169 + 429 x(170)#170 + 415 x(171)#171
     + 325 x(172)#172 + 345 x(173)#173 + 29 x(174)#174 + 424 x(175)#175
     + 972 x(176)#176 + 953 x(177)#177 + 929 x(178)#178 + 830 x(179)#179
     + 590 x(180)#180 + 92 x(181)#181 + 629 x(182)#182 + 451 x(183)#183
     + 678 x(184)#184 + 725 x(185)#185 + 998 x(186)#186 + 482 x(187)#187
     + 157 x(188)#188 + 268 x(189)#189 + 379 x(190)#190 + 223 x(191)#191
     + 29 x(192)#192 + 533 x(193)#193 + 113 x(194)#194 + 418 x(195)#195
     + 122 x(196)#196 + 693 x(197)#197 + 795 x(198)#198 + 466 x(199)#199
     + 683 x(200)#200 + 304 x(201)#201 + 238 x(202)#202 + 760 x(203)#203
     + 116 x(204)#204 + 756 x(205)#205 + 78 x(206)#206 + 315 x(207)#207
     + 248 x(208)#208 + 267 x(209)#209 + 707 x(210)#210 + 677 x(211)#211
     + 817 x(212)#212 + 963 x(213)#213 + 825 x(214)#214 + 408 x(215)#215
     + 703 x(216)#216 + 981 x(217)#217 + 778 x(218)#218 + 643 x(219)#219
     + 986 x(220)#220 + 384 x(221)#221 + 43 x(222)#222 + 321 x(223)#223
     + 200 x(224)#224 + 739 x(225)#225 + 561 x(226)#226 + 144 x(227)#227
     + 406 x(228)#228 + 4 x(229)#229 + 370 x(230)#230 + 380 x(231)#231
     + 63 x(232)#232 + 563 x(233)#233 + 147 x(234)#234 + 591 x(235)#235
     + 868 x(236)#236 + 446 x(237)#237 + 197 x(238)#238 + 298 x(239)#239
     + x(240)#240 + 187 x(241)#241 + 110 x(242)#242 + 528 x(243)#243
     + 388 x(244)#244 + 127 x(245)#245 + 929 x(246)#246 + 791 x(247)#247
     + 156 x(248)#248 + 161 x(249)#249 <= 28736
 c2: 909 x(0)#0 + 117 x(1)#1 + 461 x(2)#2 + 325 x(3)#3 + 918 x(4)#4
     + 867 x(5)#5 + 45 x(6)#6 + 106 x(7)#7 + 197 x(8)#8 + 620 x(9)#9
     + 390 x(10)#10 + 915 x(11)#11 + 832 x(12)#12 + 949 x(13)#13 + 882 x(14)#14
     + 398 x(15)#15 + 338 x(16)#16 + 74 x(17)#17 + 583 x(18)#18 + 166 x(19)#19
     + 97 x(20)#20 + 197 x(21)#21 + 544 x(22)#22 + 920 x(23)#23 + 754 x(24)#24
     + 197 x(25)#25 + 687 x(26)#26 + 895 x(27)#27 + 836 x(28)#28 + 743 x(29)#29
     + 555 x(30)#30 + 168 x(31)#31 + 246 x(32)#32 + 175 x(33)#33 + 694 x(34)#34
     + 6 x(35)#35 + 426 x(36)#36 + 597 x(37)#37 + 795 x(38)#38 + 579 x(39)#39
     + 926 x(40)#40 + 920 x(41)#41 + 186 x(42)#42 + 979 x(43)#43 + 407 x(44)#44
     + 844 x(45)#45 + 964 x(46)#46 + 760 x(47)#47 + 804 x(48)#48 + 819 x(49)#49
     + 717 x(50)#50 + 220 x(51)#51 + 683 x(52)#52 + 196 x(53)#53 + 259 x(54)#54
     + 539 x(55)#55 + 830 x(56)#56 + 477 x(57)#57 + 555 x(58)#58 + 596 x(59)#59
     + 707 x(60)#60 + 770 x(61)#61 + 190 x(62)#62 + 539 x(63)#63 + 758 x(64)#64
     + 835 x(65)#65 + 254 x(66)#66 + 888 x(67)#67 + 487 x(68)#68 + 607 x(69)#69
     + 755 x(70)#70 + 661 x(71)#71 + 300 x(72)#72 + 555 x(73)#73 + 131 x(74)#74
     + 835 x(75)#75 + 884 x(76)#76 + 864 x(77)#77 + 365 x(78)#78 + 769 x(79)#79
     + 257 x(80)#80 + 248 x(81)#81 + 412 x(82)#82 + 697 x(83)#83 + 890 x(84)#84
     + 71 x(85)#85 + 604 x(86)#86 + 51 x(87)#87 + 715 x(88)#88 + 137 x(89)#89
     + 54 x(90)#90 + 109 x(91)#91 + 430 x(92)#92 + 430 x(93)#93 + 188 x(94)#94
     + 209 x(95)#95 + 61 x(96)#96 + 88 x(97)#97 + 859 x(98)#98 + 917 x(99)#99
     + 823 x(100)#100 + 889 x(101)#101 + 531 x(102)#102 + 329 x(103)#103
     + 982 x(104)#104 + 549 x(105)#105 + 480 x(106)#106 + 603 x(107)#107
     + 90 x(108)#108 + 403 x(109)#109 + 518 x(110)#110 + 482 x(111)#111
     + 448 x(112)#112 + 690 x(113)#113 + 270 x(114)#114 + 468 x(115)#115
     + 688 x(116)#116 + 493 x(117)#117 + 874 x(118)#118 + 632 x(119)#119
     + 129 x(120)#120 + 455 x(121)#121 + 634 x(122)#122 + 99 x(123)#123
     + 460 x(124)#124 + 717 x(125)#125 + 285 x(126)#126 + 51 x(127)#127
     + 651 x(128)#128 + 902 x(129)#129 + 455 x(130)#130 + 893 x(131)#131
     + 880 x(132)#132 + 723 x(133)#133 + 341 x(134)#134 + 958 x(135)#135
     + 285 x(136)#136 + 133 x(137)#137 + 409 x(138)#138 + 724 x(139)#139
     + 39 x(140)#140 + 211 x(141)#141 + 389 x(142)#142 + 819 x(143)#143
     + 618 x(144)#144 + 217 x(145)#145 + 578 x(146)#146 + 958 x(147)#147
     + 771 x(148)#148 + 424 x(149)#149 + 134 x(150)#150 + 627 x(151)#151
     + 207 x(152)#152 + 616 x(153)#153 + 502 x(154)#154 + 781 x(155)#155
     + 214 x(156)#156 + 373 x(157)#157 + 217 x(158)#158 + 336 x(159)#159
     + 367 x(160)#160 + 220 x(161)#161 + 441 x(162)#162 + 95 x(163)#163
     + 603 x(164)#164 + 52 x(165)#165 + 168 x(166)#166 + 325 x(167)#167
     + 633 x(168)#168 + 285 x(169)#169 + 854 x(170)#170 + 189 x(171)#171
     + 548 x(172)#172 + 634 x(173)#173 + 324 x(174)#174 + 402 x(175)#175
     + 279 x(176)#176 + 645 x(177)#177 + 544 x(178)#178 + 838 x(179)#179
     + 867 x(180)#180 + 951 x(181)#181 + 590 x(182)#182 + 243 x(183)#183
     + 198 x(184)#184 + 852 x(185)#185 + 787 x(186)#186 + 387 x(187)#187
     + 604 x(188)#188 + 576 x(189)#189 + 97 x(190)#190 + 272 x(191)#191
     + 2 x(192)#192 + 196 x(193)#193 + 369 x(194)#194 + 891 x(195)#195
     + 967 x(196)#196 + 878 x(197)#197 + 604 x(198)#198 + 909 x(199)#199
     + 97 x(200)#200 + 956 x(201)#201 + 135 x(202)#202 + 7 x(203)#203
     + 929 x(204)#204 + 606 x(205)#205 + 202 x(206)#206 + 25 x(207)#207
     + 894 x(208)#208 + 998 x(209)#209 + 368 x(210)#210 + 637 x(211)#211
     + 434 x(212)#212 + 521 x(213)#213 + 220 x(214)#214 + 929 x(215)#215
     + 998 x(216)#216 + 603 x(217)#217 + 535 x(218)#218 + 470 x(219)#219
     + 342 x(220)#220 + 324 x(221)#221 + 108 x(222)#222 + 468 x(223)#223
     + 692 x(224)#224 + 724 x(225)#225 + 783 x(226)#226 + 666 x(227)#227
     + 214 x(228)#228 + 327 x(229)#229 + 545 x(230)#230 + 823 x(231)#231
     + 399 x(232)#232 + 305 x(233)#233 + 333 x(234)#234 + 969 x(235)#235
     + 757 x(236)#236 + 192 x(237)#237 + 672 x(238)#238 + 344 x(239)#239
     + 808 x(240)#240 + 44 x(241)#241 + 402 x(242)#242 + 362 x(243)#243
     + 726 x(244)#244 + 944 x(245)#245 + 71 x(246)#246 + 997 x(247)#247
     + 614 x(248)#248 + 749 x(249)#249 <= 32219
 c3: 252 x(0)#0 + 62 x(1)#1 + 635 x(2)#2 + 210 x(3)#3 + 433 x(4)#4 + 932 x(5)#5
     + 684 x(6)#6 + 678 x(7)#7 + 148 x(8)#8 + 355 x(9)#9 + 78 x(10)#10
     + 353 x(11)#11 + 959 x(12)#12 + 578 x(13)#13 + 368 x(14)#14 + 470 x(15)#15
     + 143 x(16)#16 + 420 x(17)#17 + 106 x(18)#18 + 281 x(19)#19 + 60 x(20)#20
     + 486 x(21)#21 + 477 x(22)#22 + 759 x(23)#23 + 991 x(24)#24 + 341 x(25)#25
     + 192 x(26)#26 + 82 x(27)#27 + 799 x(28)#28 + 925 x(29)#29 + 471 x(30)#30
     + 450 x(31)#31 + 433 x(32)#32 + 817 x(33)#33 + 188 x(34)#34 + 186 x(35)#35
     + 170 x(36)#36 + 375 x(37)#37 + 643 x(38)#38 + 672 x(39)#39 + 614 x(40)#40
     + 143 x(41)#41 + 23 x(42)#42 + 34 x(43)#43 + 887 x(44)#44 + 390 x(45)#45
     + 719 x(46)#46 + 329 x(47)#47 + 21 x(48)#48 + 487 x(49)#49 + 77 x(50)#50
     + 887 x(51)#51 + 928 x(52)#52 + 212 x(53)#53 + 236 x(54)#54 + 95 x(55)#55
     + 629 x(56)#56 + 919 x(57)#57 + 847 x(58)#58 + 465 x(59)#59 + 828 x(60)#60
     + 131 x(61)#61 + 569 x(62)#62 + 538 x(63)#63 + 958 x(64)#64 + 106 x(65)#65
     + 201 x(66)#66 + 797 x(67)#67 + 951 x(68)#68 + 605 x(69)#69 + 881 x(70)#70
     + 763 x(71)#71 + 327 x(72)#72 + 301 x(73)#73 + 314 x(74)#74 + 812 x(75)#75
     + 208 x(76)#76 + 876 x(77)#77 + 42 x(78)#78 + 971 x(79)#79 + 575 x(80)#80
     + 850 x(81)#81 + 505 x(82)#82 + 851 x(83)#83 + 675 x(84)#84 + 217 x(85)#85
     + 838 x(86)#86 + 748 x(87)#87 + 270 x(88)#88 + 527 x(89)#89 + 204 x(90)#90
     + 675 x(91)#91 + 190 x(92)#92 + 663 x(93)#93 + 860 x(94)#94 + 124 x(95)#95
     + 699 x(96)#96 + 382 x(97)#97 + 673 x(98)#98 + 713 x(99)#99
     + 174 x(100)#100 + 438 x(101)#101 + 286 x(102)#102 + 752 x(103)#103
     + 814 x(104)#104 + 885 x(105)#105 + 711 x(106)#106 + 181 x(107)#107
     + 570 x(108)#108 + 283 x(109)#109 + 346 x(110)#110 + 996 x(111)#111
     + 405 x(112)#112 + 206 x(113)#113 + 484 x(114)#114 + 141 x(115)#115
     + 309 x(116)#116 + 829 x(117)#117 + 611 x(118)#118 + 622 x(119)#119
     + 321 x(120)#120 + 78 x(121)#121 + 271 x(122)#122 + 657 x(123)#123
     + 990 x(124)#124 + 40 x(125)#125 + 639 x(126)#126 + 762 x(127)#127
     + 912 x(128)#128 + 120 x(129)#129 + 797 x(130)#130 + 431 x(131)#131
     + 153 x(132)#132 + 20 x(133)#133 + 929 x(134)#134 + 413 x(135)#135
     + 827 x(136)#136 + 200 x(137)#137 + 238 x(138)#138 + 766 x(139)#139
     + 765 x(140)#140 + 564 x(141)#141 + 982 x(142)#142 + 445 x(143)#143
     + 264 x(144)#144 + 802 x(145)#145 + 375 x(146)#146 + 317 x(147)#147
     + 374 x(148)#148 + 313 x(149)#149 + 834 x(150)#150 + 364 x(151)#151
     + 647 x(152)#152 + 803 x(153)#153 + 551 x(154)#154 + 715 x(155)#155
     + 635 x(156)#156 + 110 x(157)#157 + 315 x(158)#158 + 515 x(159)#159
     + 382 x(160)#160 + 341 x(161)#161 + 868 x(162)#162 + 575 x(163)#163
     + 431 x(164)#164 + 196 x(165)#165 + 995 x(166)#166 + 267 x(167)#167
     + 575 x(168)#168 + 638 x(169)#169 + 646 x(170)#170 + 319 x(171)#171
     + 585 x(172)#172 + 70 x(173)#173 + 720 x(174)#174 + 332 x(175)#175
     + 126 x(176)#176 + 207 x(177)#177 + 337 x(178)#178 + 763 x(179)#179
     + 486 x(180)#180 + 100 x(181)#181 + 364 x(182)#182 + 600 x(183)#183
     + 30 x(184)#184 + 719 x(185)#185 + 582 x(186)#186 + 514 x(187)#187
     + 604 x(188)#188 + 730 x(189)#189 + 479 x(190)#190 + 350 x(191)#191
     + 276 x(192)#192 + 855 x(193)#193 + 840 x(194)#194 + 825 x(195)#195
     + 464 x(196)#196 + 216 x(197)#197 + 547 x(198)#198 + 274 x(199)#199
     + 184 x(200)#200 + 838 x(201)#201 + 488 x(202)#202 + 649 x(203)#203
     + 431 x(204)#204 + 322 x(205)#205 + 670 x(206)#206 + 186 x(207)#207
     + 889 x(208)#208 + 700 x(209)#209 + 187 x(210)#210 + 759 x(211)#211
     + 334 x(212)#212 + 791 x(213)#213 + 473 x(214)#214 + 160 x(215)#215
     + 712 x(216)#216 + 625 x(217)#217 + 161 x(218)#218 + 540 x(219)#219
     + 684 x(220)#220 + 84 x(221)#221 + 837 x(222)#222 + 821 x(223)#223
     + 986 x(224)#224 + 486 x(225)#225 + 231 x(226)#226 + 756 x(227)#227
     + 172 x(228)#228 + 32 x(229)#229 + 530 x(230)#230 + 138 x(231)#231
     + 8 x(232)#232 + 528 x(233)#233 + 44 x(234)#234 + 458 x(235)#235
     + 774 x(236)#236 + 239 x(237)#237 + 360 x(238)#238 + 975 x(239)#239
     + 904 x(240)#240 + 186 x(241)#241 + 845 x(242)#242 + 408 x(243)#243
     + 677 x(244)#244 + 617 x(245)#245 + 545 x(246)#246 + 622 x(247)#247
     + 852 x(248)#248 + 873 x(249)#249 <= 31080
 c4: 51 x(0)#0 + 410 x(1)#1 + 264 x(2)#2 + 826 x(3)#3 + 203 x(4)#4 + 846 x(5)#5
     + 824 x(6)#6 + 144 x(7)#7 + 58 x(8)#8 + 538 x(9)#9 + 155 x(10)#10
     + 458 x(11)#11 + 304 x(12)#12 + 307 x(13)#13 + 318 x(14)#14 + 917 x(15)#15
     + 89 x(16)#16 + 739 x(17)#17 + 390 x(18)#18 + 677 x(19)#19 + 431 x(20)#20
     + 411 x(21)#21 + 748 x(22)#22 + 280 x(23)#23 + 959 x(24)#24 + 176 x(25)#25
     + 115 x(26)#26 + 747 x(27)#27 + 611 x(28)#28 + 768 x(29)#29 + 370 x(30)#30
     + 600 x(31)#31 + 578 x(32)#32 + 332 x(33)#33 + 41 x(34)#34 + 14 x(35)#35
     + 41 x(36)#36 + 395 x(37)#37 + 326 x(38)#38 + 992 x(39)#39 + 832 x(40)#40
     + 930 x(41)#41 + 246 x(42)#42 + 481 x(43)#43 + 805 x(44)#44 + 437 x(45)#45
     + 610 x(46)#46 + 300 x(47)#47 + 968 x(48)#48 + 916 x(49)#49 + 127 x(50)#50
     + 893 x(51)#51 + 171 x(52)#52 + 413 x(53)#53 + 379 x(54)#54 + 222 x(55)#55
     + 904 x(56)#56 + 886 x(57)#57 + 16 x(58)#58 + 516 x(59)#59 + 816 x(60)#60
     + 896 x(61)#61 + 570 x(62)#62 + 958 x(63)#63 + 799 x(64)#64 + 105 x(65)#65
     + 784 x(66)#66 + 104 x(67)#67 + 465 x(68)#68 + 642 x(69)#69 + 181 x(70)#70
     + 739 x(71)#71 + 98 x(72)#72 + 283 x(73)#73 + 651 x(74)#74 + 786 x(75)#75
     + 920 x(76)#76 + 160 x(77)#77 + 532 x(78)#78 + 989 x(79)#79 + 217 x(80)#80
     + 700 x(81)#81 + 673 x(82)#82 + 310 x(83)#83 + 748 x(84)#84 + 183 x(85)#85
     + 751 x(86)#86 + 197 x(87)#87 + 857 x(88)#88 + 185 x(89)#89 + 892 x(90)#90
     + 660 x(91)#91 + 488 x(92)#92 + 740 x(93)#93 + 980 x(94)#94 + 186 x(95)#95
     + 266 x(96)#96 + 891 x(97)#97 + 564 x(98)#98 + 719 x(99)#99
     + 697 x(100)#100 + 740 x(101)#101 + 603 x(102)#102 + 884 x(103)#103
     + 896 x(104)#104 + 847 x(105)#105 + 116 x(106)#106 + 696 x(107)#107
     + 346 x(108)#108 + 83 x(109)#109 + 957 x(110)#110 + 849 x(111)#111
     + 404 x(112)#112 + 933 x(113)#113 + 20 x(114)#114 + 753 x(115)#115
     + 209 x(116)#116 + 56 x(117)#117 + 270 x(118)#118 + 13 x(119)#119
     + 722 x(120)#120 + 619 x(121)#121 + 256 x(122)#122 + 852 x(123)#123
     + 994 x(124)#124 + 13 x(125)#125 + 817 x(126)#126 + 4 x(127)#127
     + 794 x(128)#128 + 209 x(129)#129 + 525 x(130)#130 + 420 x(131)#131
     + 841 x(132)#132 + 49 x(133)#133 + 658 x(134)#134 + 472 x(135)#135
     + 993 x(136)#136 + 156 x(137)#137 + 456 x(138)#138 + 696 x(139)#139
     + 962 x(140)#140 + 560 x(141)#141 + 212 x(142)#142 + 760 x(143)#143
     + 360 x(144)#144 + 46 x(145)#145 + 465 x(146)#146 + 749 x(147)#147
     + 483 x(148)#148 + 184 x(149)#149 + 498 x(150)#150 + 957 x(151)#151
     + 434 x(152)#152 + 786 x(153)#153 + 994 x(154)#154 + 931 x(155)#155
     + 191 x(156)#156 + 171 x(157)#157 + 216 x(158)#158 + 221 x(159)#159
     + 1000 x(160)#160 + 939 x(161)#161 + 419 x(162)#162 + 166 x(163)#163
     + 419 x(164)#164 + 442 x(165)#165 + 169 x(166)#166 + 105 x(167)#167
     + 958 x(168)#168 + 412 x(169)#169 + 864 x(170)#170 + 676 x(171)#171
     + 762 x(172)#172 + 150 x(173)#173 + 545 x(174)#174 + 153 x(175)#175
     + 182 x(176)#176 + 831 x(177)#177 + 911 x(178)#178 + 923 x(179)#179
     + 378 x(180)#180 + 158 x(181)#181 + 451 x(182)#182 + 405 x(183)#183
     + 658 x(184)#184 + 416 x(185)#185 + 532 x(186)#186 + 834 x(187)#187
     + 510 x(188)#188 + 182 x(189)#189 + 73 x(190)#190 + 892 x(191)#191
     + 692 x(192)#192 + 16 x(193)#193 + 767 x(194)#194 + 549 x(195)#195
     + 293 x(196)#196 + 229 x(197)#197 + 881 x(198)#198 + 863 x(199)#199
     + 855 x(200)#200 + 101 x(201)#201 + 762 x(202)#202 + 228 x(203)#203
     + 384 x(204)#204 + 388 x(205)#205 + 660 x(206)#206 + 12 x(207)#207
     + 461 x(208)#208 + 439 x(209)#209 + 566 x(210)#210 + 138 x(211)#211
     + 350 x(212)#212 + 780 x(213)#213 + 135 x(214)#214 + 446 x(215)#215
     + 858 x(216)#216 + 59 x(217)#217 + 365 x(218)#218 + 272 x(219)#219
     + 497 x(220)#220 + 150 x(221)#221 + 668 x(222)#222 + 161 x(223)#223
     + 245 x(224)#224 + 506 x(225)#225 + 695 x(226)#226 + 634 x(227)#227
     + 976 x(228)#228 + 235 x(229)#229 + 224 x(230)#230 + 681 x(231)#231
     + 244 x(232)#232 + 377 x(233)#233 + 720 x(234)#234 + 343 x(235)#235
     + 348 x(236)#236 + 788 x(237)#237 + 717 x(238)#238 + 338 x(239)#239
     + 286 x(240)#240 + 616 x(241)#241 + 174 x(242)#242 + 891 x(243)#243
     + 966 x(244)#244 + 592 x(245)#245 + 176 x(246)#246 + 559 x(247)#247
     + 457 x(248)#248 + 932 x(249)#249 <= 31637
 c5: 830 x(0)#0 + 518 x(1)#1 + 646 x(2)#2 + 227 x(3)#3 + 505 x(4)#4
     + 421 x(5)#5 + 228 x(6)#6 + 368 x(7)#7 + 637 x(8)#8 + 116 x(9)#9
     + 627 x(10)#10 + 724 x(11)#11 + 856 x(12)#12 + 743 x(13)#13 + 716 x(14)#14
     + 446 x(15)#15 + 841 x(16)#16 + 645 x(17)#17 + 56 x(18)#18 + 372 x(19)#19
     + 796 x(20)#20 + 682 x(21)#21 + 9 x(22)#22 + 696 x(23)#23 + 624 x(24)#24
     + 309 x(25)#25 + 674 x(26)#26 + 116 x(27)#27 + 724 x(28)#28 + 936 x(29)#29
     + 912 x(30)#30 + 772 x(31)#31 + 565 x(32)#32 + 547 x(33)#33 + 261 x(34)#34
     + 541 x(35)#35 + 9 x(36)#36 + 384 x(37)#37 + 545 x(38)#38 + 313 x(39)#39
     + 864 x(40)#40 + 860 x(41)#41 + 751 x(42)#42 + 472 x(43)#43 + 120 x(44)#44
     + 554 x(45)#45 + 824 x(46)#46 + 645 x(47)#47 + 533 x(48)#48 + 695 x(49)#49
     + 18 x(50)#50 + 606 x(51)#51 + 202 x(52)#52 + 149 x(53)#53 + 782 x(54)#54
     + 609 x(55)#55 + 802 x(56)#56 + 224 x(57)#57 + 108 x(58)#58 + 614 x(59)#59
     + 317 x(60)#60 + 90 x(61)#61 + 943 x(62)#62 + 977 x(63)#63 + 284 x(64)#64
     + 39 x(65)#65 + 832 x(66)#66 + 892 x(67)#67 + 595 x(68)#68 + 9 x(69)#69
     + 523 x(70)#70 + 254 x(71)#71 + 416 x(72)#72 + 129 x(73)#73 + 268 x(74)#74
     + 462 x(75)#75 + 280 x(76)#76 + 865 x(77)#77 + 688 x(78)#78 + 134 x(79)#79
     + 580 x(80)#80 + 988 x(81)#81 + 395 x(82)#82 + 160 x(83)#83 + 158 x(84)#84
     + 858 x(85)#85 + 948 x(86)#86 + 177 x(87)#87 + 206 x(88)#88 + 637 x(89)#89
     + 474 x(90)#90 + 559 x(91)#91 + 946 x(92)#92 + 317 x(93)#93 + 765 x(94)#94
     + 772 x(95)#95 + 769 x(96)#96 + 771 x(97)#97 + 957 x(98)#98 + 128 x(99)#99
     + 831 x(100)#100 + 576 x(101)#101 + 827 x(102)#102 + 160 x(103)#103
     + 478 x(104)#104 + 123 x(105)#105 + 977 x(106)#106 + 888 x(107)#107
     + 56 x(108)#108 + 749 x(109)#109 + 155 x(110)#110 + 969 x(111)#111
     + 767 x(112)#112 + 653 x(113)#113 + 994 x(114)#114 + 987 x(115)#115
     + 344 x(116)#116 + 481 x(117)#117 + 652 x(118)#118 + 49 x(119)#119
     + 403 x(120)#120 + 179 x(121)#121 + 629 x(122)#122 + 632 x(123)#123
     + 596 x(124)#124 + 696 x(125)#125 + 859 x(126)#126 + 973 x(127)#127
     + 879 x(128)#128 + 223 x(129)#129 + 885 x(130)#130 + x(131)#131
     + 741 x(132)#132 + 150 x(133)#133 + 81 x(134)#134 + 357 x(135)#135
     + 1000 x(136)#136 + 211 x(137)#137 + 560 x(138)#138 + 453 x(139)#139
     + 624 x(140)#140 + 61 x(141)#141 + 802 x(142)#142 + 30 x(143)#143
     + 20 x(144)#144 + 985 x(145)#145 + 504 x(146)#146 + 479 x(147)#147
     + 896 x(148)#148 + 707 x(149)#149 + 534 x(150)#150 + 698 x(151)#151
     + 497 x(152)#152 + 419 x(153)#153 + 309 x(154)#154 + 791 x(155)#155
     + 865 x(156)#156 + 91 x(157)#157 + 969 x(158)#158 + 292 x(159)#159
     + 539 x(160)#160 + 42 x(161)#161 + 975 x(162)#162 + 310 x(163)#163
     + 573 x(164)#164 + 578 x(165)#165 + 173 x(166)#166 + 998 x(167)#167
     + 8 x(168)#168 + 393 x(169)#169 + 807 x(170)#170 + 68 x(171)#171
     + 617 x(172)#172 + 209 x(173)#173 + 540 x(174)#174 + 21 x(175)#175
     + 269 x(176)#176 + 216 x(177)#177 + 957 x(178)#178 + 4 x(179)#179
     + 639 x(180)#180 + 312 x(181)#181 + 729 x(182)#182 + 258 x(183)#183
     + 433 x(184)#184 + 324 x(185)#185 + 897 x(186)#186 + 901 x(187)#187
     + 883 x(188)#188 + 687 x(189)#189 + 335 x(190)#190 + 729 x(191)#191
     + 518 x(192)#192 + 276 x(193)#193 + 468 x(194)#194 + 529 x(195)#195
     + 960 x(196)#196 + 28 x(197)#197 + 254 x(198)#198 + 363 x(199)#199
     + 133 x(200)#200 + 372 x(201)#201 + 926 x(202)#202 + 391 x(203)#203
     + 586 x(204)#204 + 850 x(205)#205 + 707 x(206)#206 + 310 x(207)#207
     + 817 x(208)#208 + 211 x(209)#209 + 568 x(210)#210 + 442 x(211)#211
     + 83 x(212)#212 + 551 x(213)#213 + 406 x(214)#214 + 922 x(215)#215
     + 761 x(216)#216 + 567 x(217)#217 + 658 x(218)#218 + 874 x(219)#219
     + 161 x(220)#220 + 915 x(221)#221 + 692 x(222)#222 + 948 x(223)#223
     + 585 x(224)#224 + 606 x(225)#225 + 20 x(226)#226 + 872 x(227)#227
     + 292 x(228)#228 + 382 x(229)#229 + 741 x(230)#230 + 860 x(231)#231
     + 543 x(232)#232 + 484 x(233)#233 + 470 x(234)#234 + 517 x(235)#235
     + 771 x(236)#236 + 960 x(237)#237 + 437 x(238)#238 + 553 x(239)#239
     + 272 x(240)#240 + 538 x(241)#241 + 667 x(242)#242 + 345 x(243)#243
     + 430 x(244)#244 + 768 x(245)#245 + 229 x(246)#246 + 474 x(247)#247
     + 35 x(248)#248 + 915 x(249)#249 <= 32791
Bounds
 0 <= x(0)#0 <= 1
 0 <= x(1)#1 <= 1
 0 <= x(2)#2 <= 1
 0 <= x(3)#3 <= 1
 0 <= x(4)#4 <= 1
 0 <= x(5)#5 <= 1
 0 <= x(6)#6 <= 1
 0 <= x(7)#7 <= 1
 0 <= x(8)#8 <= 1
 0 <= x(9)#9 <= 1
 0 <= x(10)#10 <= 1
 0 <= x(11)#11 <= 1
 0 <= x(12)#12 <= 1
 0 <= x(13)#13 <= 1
 0 <= x(14)#14 <= 1
 0 <= x(15)#15 <= 1
 0 <= x(16)#16 <= 1
 0 <= x(17)#17 <= 1
 0 <= x(18)#18 <= 1
 0 <= x(19)#19 <= 1
 0 <= x(20)#20 <= 1
 0 <= x(21)#21 <= 1
 0 <= x(22)#22 <= 1
 0 <= x(23)#23 <= 1
 0 <= x(24)#24 <= 1
 0 <= x(25)#25 <= 1
 0 <= x(26)#26 <= 1
 0 <= x(27)#27 <= 1
 0 <= x(28)#28 <= 1
 0 <= x(29)#29 <= 1
 0 <= x(30)#30 <= 1
 0 <= x(31)#31 <= 1
 0 <= x(32)#32 <= 1
 0 <= x(33)#33 <= 1
 0 <= x(34)#34 <= 1
 0 <= x(35)#35 <= 1
 0 <= x(36)#36 <= 1
 0 <= x(37)#37 <= 1
 0 <= x(38)#38 <= 1
 0 <= x(39)#39 <= 1
 0 <= x(40)#40 <= 1
 0 <= x(41)#41 <= 1
 0 <= x(42)#42 <= 1
 0 <= x(43)#43 <= 1
 0 <= x(44)#44 <= 1
 0 <= x(45)#45 <= 1
 0 <= x(46)#46 <= 1
 0 <= x(47)#47 <= 1
 0 <= x(48)#48 <= 1
 0 <= x(49)#49 <= 1
 0 <= x(50)#50 <= 1
 0 <= x(51)#51 <= 1
 0 <= x(52)#52 <= 1
 0 <= x(53)#53 <= 1
 0 <= x(54)#54 <= 1
 0 <= x(55)#55 <= 1
 0 <= x(56)#56 <= 1
 0 <= x(57)#57 <= 1
 0 <= x(58)#58 <= 1
 0 <= x(59)#59 <= 1
 0 <= x(60)#60 <= 1
 0 <= x(61)#61 <= 1
 0 <= x(62)#62 <= 1
 0 <= x(63)#63 <= 1
 0 <= x(64)#64 <= 1
 0 <= x(65)#65 <= 1
 0 <= x(66)#66 <= 1
 0 <= x(67)#67 <= 1
 0 <= x(68)#68 <= 1
 0 <= x(69)#69 <= 1
 0 <= x(70)#70 <= 1
 0 <= x(71)#71 <= 1
 0 <= x(72)#72 <= 1
 0 <= x(73)#73 <= 1
 0 <= x(74)#74 <= 1
 0 <= x(75)#75 <= 1
 0 <= x(76)#76 <= 1
 0 <= x(77)#77 <= 1
 0 <= x(78)#78 <= 1
 0 <= x(79)#79 <= 1
 0 <= x(80)#80 <= 1
 0 <= x(81)#81 <= 1
 0 <= x(82)#82 <= 1
 0 <= x(83)#83 <= 1
 0 <= x(84)#84 <= 1
 0 <= x(85)#85 <= 1
 0 <= x(86)#86 <= 1
 0 <= x(87)#87 <= 1
 0 <= x(88)#88 <= 1
 0 <= x(89)#89 <= 1
 0 <= x(90)#90 <= 1
 0 <= x(91)#91 <= 1
 0 <= x(92)#92 <= 1
 0 <= x(93)#93 <= 1
 0 <= x(94)#94 <= 1
 0 <= x(95)#95 <= 1
 0 <= x(96)#96 <= 1
 0 <= x(97)#97 <= 1
 0 <= x(98)#98 <= 1
 0 <= x(99)#99 <= 1
 0 <= x(100)#100 <= 1
 0 <= x(101)#101 <= 1
 0 <= x(102)#102 <= 1
 0 <= x(103)#103 <= 1
 0 <= x(104)#104 <= 1
 0 <= x(105)#105 <= 1
 0 <= x(106)#106 <= 1
 0 <= x(107)#107 <= 1
 0 <= x(108)#108 <= 1
 0 <= x(109)#109 <= 1
 0 <= x(110)#110 <= 1
 0 <= x(111)#111 <= 1
 0 <= x(112)#112 <= 1
 0 <= x(113)#113 <= 1
 0 <= x(114)#114 <= 1
 0 <= x(115)#115 <= 1
 0 <= x(116)#116 <= 1
 0 <= x(117)#117 <= 1
 0 <= x(118)#118 <= 1
 0 <= x(119)#119 <= 1
 0 <= x(120)#120 <= 1
 0 <= x(121)#121 <= 1
 0 <= x(122)#122 <= 1
 0 <= x(123)#123 <= 1
 0 <= x(124)#124 <= 1
 0 <= x(125)#125 <= 1
 0 <= x(126)#126 <= 1
 0 <= x(127)#127 <= 1
 0 <= x(128)#128 <= 1
 0 <= x(129)#129 <= 1
 0 <= x(130)#130 <= 1
 0 <= x(131)#131 <= 1
 0 <= x(132)#132 <= 1
 0 <= x(133)#133 <= 1
 0 <= x(134)#134 <= 1
 0 <= x(135)#135 <= 1
 0 <= x(136)#136 <= 1
 0 <= x(137)#137 <= 1
 0 <= x(138)#138 <= 1
 0 <= x(139)#139 <= 1
 0 <= x(140)#140 <= 1
 0 <= x(141)#141 <= 1
 0 <= x(142)#142 <= 1
 0 <= x(143)#143 <= 1
 0 <= x(144)#144 <= 1
 0 <= x(145)#145 <= 1
 0 <= x(146)#146 <= 1
 0 <= x(147)#147 <= 1
 0 <= x(148)#148 <= 1
 0 <= x(149)#149 <= 1
 0 <= x(150)#150 <= 1
 0 <= x(151)#151 <= 1
 0 <= x(152)#152 <= 1
 0 <= x(153)#153 <= 1
 0 <= x(154)#154 <= 1
 0 <= x(155)#155 <= 1
 0 <= x(156)#156 <= 1
 0 <= x(157)#157 <= 1
 0 <= x(158)#158 <= 1
 0 <= x(159)#159 <= 1
 0 <= x(160)#160 <= 1
 0 <= x(161)#161 <= 1
 0 <= x(162)#162 <= 1
 0 <= x(163)#163 <= 1
 0 <= x(164)#164 <= 1
 0 <= x(165)#165 <= 1
 0 <= x(166)#166 <= 1
 0 <= x(167)#167 <= 1
 0 <= x(168)#168 <= 1
 0 <= x(169)#169 <= 1
 0 <= x(170)#170 <= 1
 0 <= x(171)#171 <= 1
 0 <= x(172)#172 <= 1
 0 <= x(173)#173 <= 1
 0 <= x(174)#174 <= 1
 0 <= x(175)#175 <= 1
 0 <= x(176)#176 <= 1
 0 <= x(177)#177 <= 1
 0 <= x(178)#178 <= 1
 0 <= x(179)#179 <= 1
 0 <= x(180)#180 <= 1
 0 <= x(181)#181 <= 1
 0 <= x(182)#182 <= 1
 0 <= x(183)#183 <= 1
 0 <= x(184)#184 <= 1
 0 <= x(185)#185 <= 1
 0 <= x(186)#186 <= 1
 0 <= x(187)#187 <= 1
 0 <= x(188)#188 <= 1
 0 <= x(189)#189 <= 1
 0 <= x(190)#190 <= 1
 0 <= x(191)#191 <= 1
 0 <= x(192)#192 <= 1
 0 <= x(193)#193 <= 1
 0 <= x(194)#194 <= 1
 0 <= x(195)#195 <= 1
 0 <= x(196)#196 <= 1
 0 <= x(197)#197 <= 1
 0 <= x(198)#198 <= 1
 0 <= x(199)#199 <= 1
 0 <= x(200)#200 <= 1
 0 <= x(201)#201 <= 1
 0 <= x(202)#202 <= 1
 0 <= x(203)#203 <= 1
 0 <= x(204)#204 <= 1
 0 <= x(205)#205 <= 1
 0 <= x(206)#206 <= 1
 0 <= x(207)#207 <= 1
 0 <= x(208)#208 <= 1
 0 <= x(209)#209 <= 1
 0 <= x(210)#210 <= 1
 0 <= x(211)#211 <= 1
 0 <= x(212)#212 <= 1
 0 <= x(213)#213 <= 1
 0 <= x(214)#214 <= 1
 0 <= x(215)#215 <= 1
 0 <= x(216)#216 <= 1
 0 <= x(217)#217 <= 1
 0 <= x(218)#218 <= 1
 0 <= x(219)#219 <= 1
 0 <= x(220)#220 <= 1
 0 <= x(221)#221 <= 1
 0 <= x(222)#222 <= 1
 0 <= x(223)#223 <= 1
 0 <= x(224)#224 <= 1
 0 <= x(225)#225 <= 1
 0 <= x(226)#226 <= 1
 0 <= x(227)#227 <= 1
 0 <= x(228)#228 <= 1
 0 <= x(229)#229 <= 1
 0 <= x(230)#230 <= 1
 0 <= x(231)#231 <= 1
 0 <= x(232)#232 <= 1
 0 <= x(233)#233 <= 1
 0 <= x(234)#234 <= 1
 0 <= x(235)#235 <= 1
 0 <= x(236)#236 <= 1
 0 <= x(237)#237 <= 1
 0 <= x(238)#238 <= 1
 0 <= x(239)#239 <= 1
 0 <= x(240)#240 <= 1
 0 <= x(241)#241 <= 1
 0 <= x(242)#242 <= 1
 0 <= x(243)#243 <= 1
 0 <= x(244)#244 <= 1
 0 <= x(245)#245 <= 1
 0 <= x(246)#246 <= 1
 0 <= x(247)#247 <= 1
 0 <= x(248)#248 <= 1
 0 <= x(249)#249 <= 1
Generals
 x(0)#0  x(1)#1  x(2)#2  x(3)#3  x(4)#4  x(5)#5  x(6)#6  x(7)#7  x(8)#8 
 x(9)#9  x(10)#10  x(11)#11  x(12)#12  x(13)#13  x(14)#14  x(15)#15  x(16)#16 
 x(17)#17  x(18)#18  x(19)#19  x(20)#20  x(21)#21  x(22)#22  x(23)#23 
 x(24)#24  x(25)#25  x(26)#26  x(27)#27  x(28)#28  x(29)#29  x(30)#30 
 x(31)#31  x(32)#32  x(33)#33  x(34)#34  x(35)#35  x(36)#36  x(37)#37 
 x(38)#38  x(39)#39  x(40)#40  x(41)#41  x(42)#42  x(43)#43  x(44)#44 
 x(45)#45  x(46)#46  x(47)#47  x(48)#48  x(49)#49  x(50)#50  x(51)#51 
 x(52)#52  x(53)#53  x(54)#54  x(55)#55  x(56)#56  x(57)#57  x(58)#58 
 x(59)#59  x(60)#60  x(61)#61  x(62)#62  x(63)#63  x(64)#64  x(65)#65 
 x(66)#66  x(67)#67  x(68)#68  x(69)#69  x(70)#70  x(71)#71  x(72)#72 
 x(73)#73  x(74)#74  x(75)#75  x(76)#76  x(77)#77  x(78)#78  x(79)#79 
 x(80)#80  x(81)#81  x(82)#82  x(83)#83  x(84)#84  x(85)#85  x(86)#86 
 x(87)#87  x(88)#88  x(89)#89  x(90)#90  x(91)#91  x(92)#92  x(93)#93 
 x(94)#94  x(95)#95  x(96)#96  x(97)#97  x(98)#98  x(99)#99  x(100)#100 
 x(101)#101  x(102)#102  x(103)#103  x(104)#104  x(105)#105  x(106)#106 
 x(107)#107  x(108)#108  x(109)#109  x(110)#110  x(111)#111  x(112)#112 
 x(113)#113  x(114)#114  x(115)#115  x(116)#116  x(117)#117  x(118)#118 
 x(119)#119  x(120)#120  x(121)#121  x(122)#122  x(123)#123  x(124)#124 
 x(125)#125  x(126)#126  x(127)#127  x(128)#128  x(129)#129  x(130)#130 
 x(131)#131  x(132)#132  x(133)#133  x(134)#134  x(135)#135  x(136)#136 
 x(137)#137  x(138)#138  x(139)#139  x(140)#140  x(141)#141  x(142)#142 
 x(143)#143  x(144)#144  x(145)#145  x(146)#146  x(147)#147  x(148)#148 
 x(149)#149  x(150)#150  x(151)#151  x(152)#152  x(153)#153  x(154)#154 
 x(155)#155  x(156)#156  x(157)#157  x(158)#158  x(159)#159  x(160)#160 
 x(161)#161  x(162)#162  x(163)#163  x(164)#164  x(165)#165  x(166)#166 
 x(167)#167  x(168)#168  x(169)#169  x(170)#170  x(171)#171  x(172)#172 
 x(173)#173  x(174)#174  x(175)#175  x(176)#176  x(177)#177  x(178)#178 
 x(179)#179  x(180)#180  x(181)#181  x(182)#182  x(183)#183  x(184)#184 
 x(185)#185  x(186)#186  x(187)#187  x(188)#188  x(189)#189  x(190)#190 
 x(191)#191  x(192)#192  x(193)#193  x(194)#194  x(195)#195  x(196)#196 
 x(197)#197  x(198)#198  x(199)#199  x(200)#200  x(201)#201  x(202)#202 
 x(203)#203  x(204)#204  x(205)#205  x(206)#206  x(207)#207  x(208)#208 
 x(209)#209  x(210)#210  x(211)#211  x(212)#212  x(213)#213  x(214)#214 
 x(215)#215  x(216)#216  x(217)#217  x(218)#218  x(219)#219  x(220)#220 
 x(221)#221  x(222)#222  x(223)#223  x(224)#224  x(225)#225  x(226)#226 
 x(227)#227  x(228)#228  x(229)#229  x(230)#230  x(231)#231  x(232)#232 
 x(233)#233  x(234)#234  x(235)#235  x(236)#236  x(237)#237  x(238)#238 
 x(239)#239  x(240)#240  x(241)#241  x(242)#242  x(243)#243  x(244)#244 
 x(245)#245  x(246)#246  x(247)#247  x(248)#248  x(249)#249 
End
